1.7,17.3,22.5,10.0,7.5,8.3
11.7,22.3,44.5,20.0,22.4,1.2
30

1.7,17.3,22.5,10.0,7.5,8.3
11.7,22.3,44.5,20.0,22.4,1.2
300

2.4,7.2,8.9,2.5
3.3,11.2,22.9,7.5
100

2.2,7.7,9.9,11.11,22.22,33.33
1.1,2.2,3.3,4.4
11